src/asp/benchmarks/input1.lp
citta(corciano).
citta(citta_di_castello).
citta(assisi).
citta(amelia).
citta(umbertide).

richiesta(corciano, strade, 233881).
richiesta(corciano, fiumi, 153741).
richiesta(corciano, scuole, 293068).
richiesta(corciano, parchi, 87146).
richiesta(corciano, energia, 689577).

richiesta(citta_di_castello, strade, 633212).
richiesta(citta_di_castello, fiumi, 443990).
richiesta(citta_di_castello, scuole, 327797).
richiesta(citta_di_castello, parchi, 329735).
richiesta(citta_di_castello, energia, 40920).

richiesta(assisi, strade, 913876).
richiesta(assisi, fiumi, 722516).
richiesta(assisi, scuole, 52767).
richiesta(assisi, parchi, 40877).
richiesta(assisi, energia, 593645).

richiesta(amelia, strade, 43622).
richiesta(amelia, fiumi, 235355).
richiesta(amelia, scuole, 126665).
richiesta(amelia, parchi, 1733074).
richiesta(amelia, energia, 259813).

richiesta(umbertide, strade, 517553).
richiesta(umbertide, fiumi, 786355).
richiesta(umbertide, scuole, 569285).
richiesta(umbertide, parchi, 0).
richiesta(umbertide, energia, 171508).

