src/minizinc/benchmarks/input1.dzn
COMUNI = {
	amelia,
	gubbio,
	spoleto,
	gualdo_tardino,
};

NUMERO_COMUNI = 4;

ABITANTI_PER_COMUNE = [11, 30, 36, 14];

STRADE_TRA_COMUNI = [|
	false, false, false, false |
	false, false, false, true |
	false, false, false, false |
	false, true, false, false |
|];

RICHIESTE = [|
	274, 63, 23, 18, 20 |
	38, 108, 41, 49, 32 |
	4, 7, 38, 34, 24 |
	114, 3, 53, 39, 7 |
|];
